% demand
num_movements = 20;
loading_factor = [1150, 1000, 1950, 1150, 1750, 1250, 1450, 1950, 1400, 1600, 1650, 1800, 1600, 800, 1750, 1000, 1500, 1900, 2000, 800];
pickup_time = [0, 0, 0, 0, 0, 2, 2, 2, 3, 3, 3, 3, 4, 5, 5, 5, 5, 6, 6, 6];
delivery_time = [2, 2, 3, 2, 1, 3, 3, 3, 5, 4, 5, 5, 5, 7, 6, 6, 7, 7, 7, 7];

% transporter definition
total_capacity = 7000;
num_decks = 3;
capacity = [3000, 1000, 3000];

% ways out of decks
num_ways_out = 1;
paths_out = array3d(decks, ways_out, decks, [
% ways out of deck d1
2, 3, 0, 

% ways out of deck d2
3, 0, 0, 

% ways out of deck d3
0, 0, 0,	

]);

